; c1_0 and (u(c1_0)<=2) and c1_1 and (u(c1_1)<=2) and c1_2 and (u(c1_2)<=2)
(declare-const n Int)
(assert (< 0 n))
(assert (<= 0 2))
(assert (< 1 n))
(assert (<= 1 2))
(assert (< 2 n))
(assert (<= 2 2))
(check-sat)
(get-model)